optimization/routes/lkh/example.vrp
NAME : WHIZZKIDS96
TYPE : TSP
DIMENSION : 6
VEHICLES : 4
EDGE_WEIGHT_TYPE: EXPLICIT
EDGE_WEIGHT_FORMAT: FULL_MATRIX
EDGE_WEIGHT_SECTION
1 1 1 1 1 1
1 1 1 1 1 1
1 1 1 1 1 1
1 1 1 0 0 0
1 1 1 0 0 0
1 1 1 0 0 0
